
Gurobi 9.5.0 (linux64) logging started Mon Dec  4 12:47:28 2023

Set parameter LogFile to value "/lustre1/scratch/348/vsc34888/JointResearch/05.Models/06.Benchmarking/E.Representative_days_based_on_Line_Benefits_OptModel/RTS24_mod1_ByStages_nc400/openStarNet_RTS24_mod1_ByStages_nc400.log"
Set parameter Method to value 2
Set parameter MIPFocus to value 1
Set parameter Presolve to value 2
Set parameter RINS to value 100
Set parameter MIPGap to value 0.01
Set parameter Threads to value 36
Set parameter TimeLimit to value 259200
Set parameter IterationLimit to value 760000000
Gurobi Optimizer version 9.5.0 build v9.5.0rc5 (linux64)
Thread count: 36 physical cores, 36 logical processors, using up to 36 threads
Optimize a model with 142358 rows, 96068 columns and 388051 nonzeros
Model fingerprint: 0x2ccd8339
Variable types: 96047 continuous, 21 integer (21 binary)
Coefficient statistics:
  Matrix range     [1e-03, 8e+02]
  Objective range  [1e+00, 1e+00]
  Bounds range     [4e-05, 3e+00]
  RHS range        [4e-05, 3e+00]
Presolve removed 84738 rows and 48672 columns
Presolve time: 0.60s
Presolved: 57620 rows, 47396 columns, 208036 nonzeros
Variable types: 47375 continuous, 21 integer (21 binary)
Root relaxation presolved: 57620 rows, 47396 columns, 208036 nonzeros

Root barrier log...

Ordering time: 0.01s

Barrier statistics:
 Dense cols : 21
 AA' NZ     : 3.863e+05
 Factor NZ  : 1.145e+06 (roughly 50 MB of memory)
 Factor Ops : 2.714e+07 (less than 1 second per iteration)
 Threads    : 35

                  Objective                Residual
Iter       Primal          Dual         Primal    Dual     Compl     Time
   0   6.65434712e+05 -3.05312760e+08  5.32e+00 1.03e+02  6.41e+03     1s
   1   1.07368199e+05 -7.92556398e+07  7.08e-01 2.38e-08  8.96e+02     1s
   2   4.44792133e+04 -4.36405507e+07  1.88e-01 2.07e-08  3.80e+02     1s
   3   2.31203252e+04 -4.85551606e+06  7.63e-03 1.10e-08  3.68e+01     1s
   4   1.81165126e+04 -4.01409355e+05  5.24e-04 8.78e-10  3.13e+00     1s
   5   6.29255199e+03 -9.10655677e+04  3.84e-05 1.79e-10  7.25e-01     1s
   6   1.95444363e+03 -2.05648466e+04  8.08e-06 3.52e-11  1.68e-01     1s
   7   8.19819467e+02 -8.43426940e+03  2.08e-06 1.39e-11  6.89e-02     1s
   8   3.19241180e+02 -1.75611488e+03  9.00e-08 2.82e-12  1.55e-02     1s
   9   2.25325943e+02 -6.00223765e+02  4.15e-08 1.06e-12  6.15e-03     1s
  10   1.45936287e+02 -2.20350793e+02  1.53e-08 4.71e-13  2.73e-03     1s
  11   1.01393620e+02 -3.14311890e+01  5.38e-09 4.55e-13  9.90e-04     1s
  12   8.44801729e+01  2.16786302e+01  2.72e-09 4.55e-13  4.68e-04     1s
  13   7.89885624e+01  3.71932951e+01  1.93e-09 2.27e-13  3.11e-04     1s
  14   7.52797411e+01  4.54233161e+01  1.40e-09 4.55e-13  2.22e-04     1s
  15   7.33204642e+01  4.85582545e+01  1.12e-09 4.55e-13  1.84e-04     1s
  16   7.06168977e+01  5.52407333e+01  7.37e-10 2.27e-13  1.15e-04     1s
  17   6.92708759e+01  5.87796743e+01  5.36e-10 4.55e-13  7.82e-05     1s
  18   6.82318124e+01  6.02438417e+01  3.87e-10 9.09e-13  5.95e-05     1s
  19   6.77580372e+01  6.29558900e+01  3.23e-10 9.09e-13  3.58e-05     2s
  20   6.73104578e+01  6.34033940e+01  2.53e-10 9.09e-13  2.91e-05     2s
  21   6.68473153e+01  6.38745765e+01  1.82e-10 4.55e-13  2.21e-05     2s
  22   6.65157877e+01  6.42920052e+01  1.29e-10 9.09e-13  1.66e-05     2s
  23   6.62718333e+01  6.45753388e+01  8.87e-11 4.55e-13  1.26e-05     2s
  24   6.61537274e+01  6.48630905e+01  6.95e-11 9.09e-13  9.62e-06     2s
  25   6.59951457e+01  6.51045021e+01  8.88e-11 9.09e-13  6.64e-06     2s
  26   6.58700211e+01  6.53213691e+01  3.09e-11 4.55e-13  4.09e-06     2s
  27   6.57646307e+01  6.56213754e+01  3.16e-11 2.27e-13  1.07e-06     2s
  28   6.57471712e+01  6.56716118e+01  1.89e-11 1.82e-12  5.63e-07     2s
  29   6.57361974e+01  6.56831281e+01  1.28e-10 9.09e-13  3.95e-07     2s
  30   6.57329385e+01  6.57005639e+01  9.10e-11 4.55e-13  2.41e-07     2s
  31   6.57297073e+01  6.57117351e+01  5.46e-10 4.55e-13  1.34e-07     2s
  32   6.57286375e+01  6.57231403e+01  2.56e-10 4.55e-13  4.10e-08     2s
  33   6.57281541e+01  6.57261831e+01  3.57e-10 1.96e-12  1.47e-08     2s
  34   6.57279557e+01  6.57270180e+01  4.27e-10 1.83e-12  6.99e-09     2s
  35   6.57278423e+01  6.57272733e+01  9.63e-10 2.45e-11  4.24e-09     2s
  36   6.57278277e+01  6.57276538e+01  6.75e-10 1.51e-11  1.30e-09     2s
  37   6.57278077e+01  6.57276998e+01  8.51e-10 8.94e-12  8.04e-10     2s
  38   6.57278065e+01  6.57277856e+01  6.01e-10 9.62e-10  1.56e-10     2s
  39   6.57278050e+01  6.57277962e+01  7.24e-09 4.06e-10  6.56e-11     2s
  40   6.57278046e+01  6.57277965e+01  3.54e-09 3.79e-10  6.04e-11     2s
  41   6.57278044e+01  6.57278034e+01  1.09e-09 3.42e-11  7.22e-12     2s
  42   6.57278043e+01  6.57278043e+01  2.06e-09 9.09e-13  1.55e-13     2s

Barrier solved model in 42 iterations and 2.19 seconds (1.88 work units)
Optimal objective 6.57278043e+01


Root relaxation: objective 6.572780e+01, 8723 iterations, 1.96 seconds (1.59 work units)

    Nodes    |    Current Node    |     Objective Bounds      |     Work
 Expl Unexpl |  Obj  Depth IntInf | Incumbent    BestBd   Gap | It/Node Time

     0     0   65.72780    0   16          -   65.72780      -     -    4s
H    0     0                     112.9594435   65.72780  41.8%     -    5s
H    0     0                     104.0536629   66.66931  35.9%     -   12s
     0     0   66.66931    0   17  104.05366   66.66931  35.9%     -   12s
H    0     0                      97.4167964   66.66931  31.6%     -   13s
     0     0   66.69732    0   16   97.41680   66.69732  31.5%     -   14s
     0     0   66.88788    0   15   97.41680   66.88788  31.3%     -   17s
     0     0   66.89224    0   15   97.41680   66.89224  31.3%     -   19s
     0     0   66.89751    0   12   97.41680   66.89751  31.3%     -   20s
     0     0   66.89978    0   14   97.41680   66.89978  31.3%     -   20s
     0     0   66.90000    0   12   97.41680   66.90000  31.3%     -   21s
     0     0   66.90000    0   12   97.41680   66.90000  31.3%     -   21s
     0     0   66.98727    0   13   97.41680   66.98727  31.2%     -   23s
     0     0   67.02631    0   12   97.41680   67.02631  31.2%     -   25s
     0     0   67.02631    0   12   97.41680   67.02631  31.2%     -   25s
     0     0   67.76779    0   16   97.41680   67.76779  30.4%     -   26s
     0     0   67.76779    0   13   97.41680   67.76779  30.4%     -   27s
     0     0   67.76779    0   13   97.41680   67.76779  30.4%     -   32s
H    0     0                      86.7187855   67.76779  21.9%     -   38s
H    0     0                      85.1205887   67.76779  20.4%     -  174s
     0     2   67.76779    0   13   85.12059   67.76779  20.4%     -  175s
     3     8   67.76779    2   17   85.12059   67.76779  20.4%  4503  180s
    15    32   68.09717    4   15   85.12059   68.09717  20.0%  3476  186s
    63    94   68.84387    6   14   85.12059   68.36498  19.7%  3339  204s
    99   122   71.92860    7   13   85.12059   68.84892  19.1%  3341  239s
   135   154   71.63387    7   13   85.12059   70.05894  17.7%  3229  243s
   171   178   74.11507    8   12   85.12059   70.60376  17.1%  3001  246s
   256   200   76.28095    9   11   85.12059   71.57767  15.9%  2527  288s
   301   233   78.96704   10   10   85.12059   71.57767  15.9%  2359  291s
   356   240   83.56437   10   10   85.12059   71.57767  15.9%  2206  296s
   405   240   84.51276   11    9   85.12059   71.57767  15.9%  2168  302s
   470   265     cutoff   11        85.12059   71.57767  15.9%  2105  306s
   530   268     cutoff   12        85.12059   71.93430  15.5%  2023  375s
   678   279   80.60061    7   10   85.12059   71.93430  15.5%  1896  384s
   752   291   82.93297    8    9   85.12059   71.93430  15.5%  1841  388s
   834   287     cutoff    9        85.12059   71.94132  15.5%  1781  393s
   939   281     cutoff    9        85.12059   72.07113  15.3%  1733  399s
  1022   293   78.56616    9   11   85.12059   72.07113  15.3%  1723  405s
  1241   309   83.59503   10   10   85.12059   72.07113  15.3%  1651  414s
  1352   292     cutoff   11        85.12059   73.80652  13.3%  1616  420s
  1606   300   77.81967    9   11   85.12059   74.46199  12.5%  1564  429s
  1773   299   82.14701   11    9   85.12059   74.46199  12.5%  1499  434s
  1936   302     cutoff   14        85.12059   75.98753  10.7%  1451  440s
  2113   312   83.11609   11    9   85.12059   77.15272  9.36%  1408  445s
  2293   289   84.41355   12    8   85.12059   77.15272  9.36%  1368  706s
  2486   259   85.05108   13    7   85.12059   78.47264  7.81%  1327  712s
  2715   239   83.41417   13    7   85.12059   78.47264  7.81%  1291  719s
  2914   211     cutoff   16        85.12059   78.92335  7.28%  1270  725s
  3174   121   82.51443   14    6   85.12059   79.53834  6.56%  1223  730s
  3640     0     cutoff   11        85.12059   83.32636  2.11%  1140  737s

Cutting planes:
  Gomory: 1
  Implied bound: 273
  MIR: 1943
  Relax-and-lift: 123

Explored 3702 nodes (4204153 simplex iterations) in 737.52 seconds (1313.31 work units)
Thread count was 36 (of 36 available processors)

Solution count 5: 85.1206 86.7188 97.4168 ... 112.959

Optimal solution found (tolerance 1.00e-02)
Best objective 8.512058867057e+01, best bound 8.512058867057e+01, gap 0.0000%

Gurobi 9.5.0 (linux64) logging started Mon Dec  4 13:00:51 2023

Set parameter LogFile to value "/lustre1/scratch/348/vsc34888/JointResearch/05.Models/06.Benchmarking/E.Representative_days_based_on_Line_Benefits_OptModel/RTS24_mod1_ByStages_nc400/openStarNet_RTS24_mod1_ByStages_nc400.log"
Set parameter Method to value 2
Set parameter MIPFocus to value 1
Set parameter Presolve to value 2
Set parameter RINS to value 100
Set parameter MIPGap to value 0.01
Set parameter Threads to value 36
Set parameter TimeLimit to value 259200
Set parameter IterationLimit to value 760000000
No parameters matching 'relax_integrality' found
Gurobi Optimizer version 9.5.0 build v9.5.0rc5 (linux64)
Thread count: 36 physical cores, 36 logical processors, using up to 36 threads
Optimize a model with 142358 rows, 96047 columns and 354346 nonzeros
Model fingerprint: 0xd453c514
Coefficient statistics:
  Matrix range     [1e-03, 8e+02]
  Objective range  [1e+00, 1e+00]
  Bounds range     [4e-05, 3e+00]
  RHS range        [4e-05, 2e+01]
Presolve removed 117686 rows and 52762 columns
Presolve time: 0.18s
Presolved: 24672 rows, 43842 columns, 108962 nonzeros

Ordering time: 0.00s

Barrier statistics:
 AA' NZ     : 6.224e+04
 Factor NZ  : 2.051e+05 (roughly 23 MB of memory)
 Factor Ops : 2.685e+06 (less than 1 second per iteration)
 Threads    : 36

                  Objective                Residual
Iter       Primal          Dual         Primal    Dual     Compl     Time
   0   2.04371491e+06 -9.41373715e+07  3.00e+01 2.53e+01  1.37e+04     0s
   1   1.28394638e+05 -6.18220796e+07  1.51e+00 2.18e-12  1.37e+03     0s
   2   3.84485757e+04 -1.54291349e+07  2.27e-01 2.82e-12  2.55e+02     0s
   3   2.38608868e+04 -1.81734775e+06  1.06e-02 1.37e-12  2.56e+01     0s
   4   1.87769126e+04 -3.11381607e+05  7.93e-04 1.54e-12  4.50e+00     0s
   5   6.92432080e+03 -7.31328272e+04  2.48e-05 1.31e-12  1.09e+00     0s
   6   2.50778551e+03 -1.63340234e+04  5.69e-06 3.37e-13  2.56e-01     0s
   7   1.04352187e+03 -4.80251624e+03  1.64e-06 2.27e-13  7.95e-02     0s
   8   4.50641724e+02 -1.38900118e+03  3.57e-07 4.55e-13  2.50e-02     0s
   9   2.62498835e+02 -4.00318091e+02  1.09e-07 2.27e-13  9.01e-03     0s
  10   1.81175838e+02 -1.50217272e+02  5.07e-08 1.14e-13  4.50e-03     0s
  11   1.17736020e+02 -1.48924895e+01  1.32e-08 1.14e-13  1.80e-03     0s
  12   9.29622750e+01  5.72768138e+01  2.08e-09 1.14e-13  4.85e-04     0s
  13   8.82075779e+01  8.10619620e+01  7.48e-10 2.27e-13  9.71e-05     0s
  14   8.63057666e+01  8.35726921e+01  2.77e-10 2.27e-13  3.71e-05     0s
  15   8.55583562e+01  8.45434809e+01  9.78e-11 1.71e-13  1.38e-05     0s
  16   8.52814555e+01  8.48991882e+01  3.36e-11 1.14e-13  5.20e-06     0s
  17   8.51624529e+01  8.50587545e+01  8.25e-12 2.27e-13  1.41e-06     0s
  18   8.51248533e+01  8.51109360e+01  5.69e-12 4.55e-13  1.89e-07     0s
  19   8.51210518e+01  8.51194867e+01  1.17e-11 2.27e-13  2.13e-08     0s
  20   8.51205910e+01  8.51205832e+01  8.02e-12 2.27e-13  1.06e-10     1s
  21   8.51205887e+01  8.51205887e+01  6.06e-12 4.55e-13  3.42e-16     1s

Barrier solved model in 21 iterations and 0.51 seconds (0.46 work units)
Optimal objective 8.51205887e+01

Crossover log...

    5030 DPushes remaining with DInf 0.0000000e+00                 1s
       0 DPushes remaining with DInf 0.0000000e+00                 1s

    1198 PPushes remaining with PInf 0.0000000e+00                 1s
       0 PPushes remaining with PInf 0.0000000e+00                 1s

  Push phase complete: Pinf 0.0000000e+00, Dinf 1.1377362e-13      1s

Iteration    Objective       Primal Inf.    Dual Inf.      Time
    1255    8.5120589e+01   0.000000e+00   0.000000e+00      1s

Use crossover to convert LP symmetric solution to basic solution...
Crossover log...

       0 DPushes remaining with DInf 0.0000000e+00                 1s

     795 PPushes remaining with PInf 0.0000000e+00                 1s
       0 PPushes remaining with PInf 0.0000000e+00                 1s

  Push phase complete: Pinf 0.0000000e+00, Dinf 1.7298147e-13      1s

Iteration    Objective       Primal Inf.    Dual Inf.      Time
    2085    8.5120589e+01   0.000000e+00   0.000000e+00      1s

Solved in 2085 iterations and 0.81 seconds (0.64 work units)
Optimal objective  8.512058867e+01

Gurobi 9.5.0 (linux64) logging started Fri Dec  8 21:15:26 2023

Set parameter LogFile to value "/lustre1/scratch/348/vsc34888/JointResearch/05.Models/06.Benchmarking/E.Representative_days_based_on_Line_Benefits_OptModel/RTS24_mod1_ByStages_nc400/openStarNet_RTS24_mod1_ByStages_nc400.log"
Set parameter Method to value 2
Set parameter MIPFocus to value 1
Set parameter Presolve to value 2
Set parameter RINS to value 100
Set parameter MIPGap to value 0.01
Set parameter Threads to value 36
Set parameter TimeLimit to value 259200
Set parameter IterationLimit to value 760000000
Gurobi Optimizer version 9.5.0 build v9.5.0rc5 (linux64)
Thread count: 36 physical cores, 36 logical processors, using up to 36 threads
Optimize a model with 142358 rows, 96122 columns and 388214 nonzeros
Model fingerprint: 0x360882ef
Variable types: 96101 continuous, 21 integer (21 binary)
Coefficient statistics:
  Matrix range     [1e-03, 6e+02]
  Objective range  [1e+00, 1e+00]
  Bounds range     [5e-05, 3e+00]
  RHS range        [5e-05, 3e+00]
Presolve removed 84748 rows and 48736 columns
Presolve time: 0.56s
Presolved: 57610 rows, 47386 columns, 208012 nonzeros
Variable types: 47365 continuous, 21 integer (21 binary)
Root relaxation presolved: 57610 rows, 47386 columns, 208012 nonzeros

Root barrier log...

Ordering time: 0.01s

Barrier statistics:
 Dense cols : 21
 AA' NZ     : 3.863e+05
 Factor NZ  : 1.126e+06 (roughly 50 MB of memory)
 Factor Ops : 2.580e+07 (less than 1 second per iteration)
 Threads    : 35

                  Objective                Residual
Iter       Primal          Dual         Primal    Dual     Compl     Time
   0   6.57644066e+05 -2.33191401e+08  5.25e+00 1.34e+02  4.86e+03     1s
   1   1.03498079e+05 -5.99944042e+07  6.86e-01 9.05e-09  6.73e+02     1s
   2   4.27675450e+04 -3.36265091e+07  1.84e-01 5.52e-09  2.92e+02     1s
   3   2.19462006e+04 -3.60904719e+06  6.65e-03 4.04e-09  2.74e+01     1s
   4   1.65009000e+04 -3.16405529e+05  2.13e-04 3.00e-10  2.48e+00     1s
   5   6.22663552e+03 -8.32861270e+04  3.28e-05 6.93e-11  6.67e-01     1s
   6   1.94743715e+03 -1.94620144e+04  7.02e-06 1.46e-11  1.60e-01     1s
   7   7.96700181e+02 -7.43156731e+03  1.81e-06 5.51e-12  6.13e-02     1s
   8   3.46530208e+02 -1.62651710e+03  2.97e-07 1.16e-12  1.47e-02     1s
   9   2.19701116e+02 -6.73803793e+02  1.31e-07 4.55e-13  6.66e-03     1s
  10   1.26710055e+02 -2.18916292e+02  4.34e-08 4.55e-13  2.58e-03     1s
  11   1.01084819e+02 -7.15274295e+01  2.62e-08 2.27e-13  1.29e-03     1s
  12   8.49223720e+01 -4.47355852e+01  1.66e-08 2.27e-13  9.66e-04     1s
  13   7.87570905e+01 -3.09611990e+01  1.33e-08 4.55e-13  8.18e-04     1s
  14   7.27749490e+01 -2.19174753e+01  1.02e-08 9.09e-13  7.06e-04     1s
  15   6.81050218e+01 -3.28587522e+00  7.74e-09 4.55e-13  5.32e-04     1s
  16   6.49698314e+01  2.02761991e+01  6.20e-09 4.55e-13  3.33e-04     1s
  17   6.07132323e+01  2.86513754e+01  4.24e-09 4.55e-13  2.39e-04     1s
  18   5.89584196e+01  3.62530745e+01  3.40e-09 4.55e-13  1.69e-04     1s
  19   5.72983280e+01  4.20192959e+01  2.63e-09 4.55e-13  1.14e-04     1s
  20   5.56895703e+01  4.37552455e+01  1.87e-09 4.55e-13  8.89e-05     1s
  21   5.44709959e+01  4.54141945e+01  1.35e-09 9.09e-13  6.75e-05     1s
  22   5.38268424e+01  4.60520714e+01  1.06e-09 4.55e-13  5.79e-05     2s
  23   5.33938126e+01  4.74912581e+01  8.22e-10 4.55e-13  4.40e-05     2s
  24   5.33228829e+01  4.81956752e+01  7.88e-10 4.55e-13  3.82e-05     2s
  25   5.27366348e+01  4.92424519e+01  4.96e-10 2.27e-13  2.60e-05     2s
  26   5.26757091e+01  4.94754888e+01  4.65e-10 4.55e-13  2.38e-05     2s
  27   5.22019755e+01  5.00538620e+01  2.14e-10 2.27e-13  1.60e-05     2s
  28   5.20897658e+01  5.02697371e+01  1.61e-10 4.55e-13  1.36e-05     2s
  29   5.20611932e+01  5.07310158e+01  1.45e-10 9.09e-13  9.91e-06     2s
  30   5.19734349e+01  5.08213584e+01  1.05e-10 4.55e-13  8.58e-06     2s
  31   5.19113284e+01  5.09535408e+01  7.27e-11 2.27e-13  7.14e-06     2s
  32   5.18190392e+01  5.12062484e+01  2.69e-11 4.55e-13  4.57e-06     2s
  33   5.17893367e+01  5.15316385e+01  1.25e-11 4.55e-13  1.92e-06     2s
  34   5.17733535e+01  5.16433312e+01  1.77e-11 4.55e-13  9.69e-07     2s
  35   5.17665357e+01  5.17320408e+01  2.19e-11 1.99e-12  2.57e-07     2s
  36   5.17618963e+01  5.17514268e+01  1.01e-10 9.09e-13  7.80e-08     2s
  37   5.17601066e+01  5.17554708e+01  1.60e-10 1.32e-12  3.45e-08     2s
  38   5.17595132e+01  5.17573672e+01  9.12e-10 5.39e-12  1.60e-08     2s
  39   5.17593353e+01  5.17578187e+01  2.24e-09 1.79e-11  1.13e-08     2s
  40   5.17592582e+01  5.17587068e+01  1.61e-09 1.34e-10  4.11e-09     2s
  41   5.17591434e+01  5.17588199e+01  2.08e-09 8.77e-11  2.41e-09     2s
  42   5.17591390e+01  5.17590373e+01  1.57e-09 2.52e-10  7.57e-10     2s
  43   5.17591343e+01  5.17590555e+01  1.09e-09 2.00e-10  5.87e-10     2s
  44   5.17591325e+01  5.17590579e+01  8.23e-10 1.93e-10  5.56e-10     2s
  45   5.17591303e+01  5.17591058e+01  4.82e-10 5.97e-11  1.83e-10     2s
  46   5.17591291e+01  5.17591065e+01  2.81e-10 5.77e-11  1.68e-10     2s
  47   5.17591285e+01  5.17591070e+01  1.76e-10 5.61e-11  1.60e-10     2s
  48   5.17591283e+01  5.17591209e+01  1.71e-10 1.05e-11  5.54e-11     2s
  49   5.17591282e+01  5.17591212e+01  2.43e-10 1.02e-11  5.21e-11     2s
  50   5.17591278e+01  5.17591264e+01  9.28e-10 2.27e-13  1.04e-11     2s
  51   5.17591274e+01  5.17591273e+01  3.92e-10 1.65e-12  6.19e-13     2s

Barrier solved model in 51 iterations and 2.34 seconds (2.04 work units)
Optimal objective 5.17591274e+01


Root relaxation: objective 5.175913e+01, 9129 iterations, 2.12 seconds (1.80 work units)

    Nodes    |    Current Node    |     Objective Bounds      |     Work
 Expl Unexpl |  Obj  Depth IntInf | Incumbent    BestBd   Gap | It/Node Time

     0     0   51.75913    0   18          -   51.75913      -     -    4s
H    0     0                     103.1622213   51.75913  49.8%     -    5s
H    0     0                      99.2969038   53.07123  46.6%     -   11s
     0     0   53.12216    0   15   99.29690   53.12216  46.5%     -   11s
     0     0   53.12216    0   15   99.29690   53.12216  46.5%     -   11s
H    0     0                      93.3693021   53.12982  43.1%     -   12s
     0     0   53.12982    0   14   93.36930   53.12982  43.1%     -   13s
     0     0   53.14013    0   16   93.36930   53.14013  43.1%     -   14s
     0     0   53.26616    0   16   93.36930   53.26616  43.0%     -   14s
     0     0   53.26616    0   16   93.36930   53.26616  43.0%     -   14s
     0     0   53.35782    0   14   93.36930   53.35782  42.9%     -   17s
     0     0   53.41401    0   12   93.36930   53.41401  42.8%     -   19s
     0     0   53.41527    0   12   93.36930   53.41527  42.8%     -   20s
     0     0   53.41549    0   12   93.36930   53.41549  42.8%     -   20s
     0     0   53.41549    0   12   93.36930   53.41549  42.8%     -   20s
H    0     0                      86.7778966   53.41549  38.4%     -   21s
     0     0   53.59903    0   12   86.77790   53.59903  38.2%     -   22s
     0     0   53.60993    0   13   86.77790   53.60993  38.2%     -   24s
     0     0   53.61342    0   13   86.77790   53.61342  38.2%     -   24s
     0     0   53.61355    0   13   86.77790   53.61355  38.2%     -   25s
     0     0   53.74051    0   14   86.77790   53.74051  38.1%     -   26s
     0     0   53.75283    0   12   86.77790   53.75283  38.1%     -   27s
     0     0   53.75300    0   12   86.77790   53.75300  38.1%     -   27s
     0     0   54.41026    0   14   86.77790   54.41026  37.3%     -   32s
H    0     0                      72.5903907   54.41026  25.0%     -  189s
     0     2   54.41026    0   14   72.59039   54.41026  25.0%     -  191s
     3     8   54.93458    2   16   72.59039   54.41026  25.0%  5135  196s
    15    32   55.09927    4   15   72.59039   55.09927  24.1%  3850  201s
    31    64   56.47985    5   15   72.59039   55.10908  24.1%  3915  211s
    63    98   58.36580    6   15   72.59039   56.49525  22.2%  5612  223s
    99   124   59.95203    7   14   72.59039   57.05355  21.4%  4705  263s
H  105   124                      72.2992213   57.05355  21.1%  4590  263s
   135   154   62.66679    8   13   72.29922   57.05355  21.1%  4077  267s
   171   177   67.09002    9   11   72.29922   57.05355  21.1%  3746  270s
   207   194   68.73787    9   11   72.29922   57.05355  21.1%  3526  275s
   251   198   70.04652   10   10   72.29922   57.05355  21.1%  3423  312s
   299   213     cutoff   11        72.29922   57.05355  21.1%  3130  695s
   356   226   71.54762   10    9   72.29922   57.05355  21.1%  2929  716s
   401   242   71.75052   11    9   72.29922   57.05355  21.1%  2894  723s
   489   259     cutoff   11        72.29922   57.53603  20.4%  2702  728s
   576   248   63.91337    7   13   72.29922   57.77375  20.1%  2568  749s
   649   274   67.34064    8   12   72.29922   57.77375  20.1%  2474  753s
   768   283   70.15219    9   11   72.29922   57.77375  20.1%  2264  759s
   894   313     cutoff   11        72.29922   57.77375  20.1%  2122  764s
  1006   333     cutoff   10        72.29922   58.14901  19.6%  2022  771s
  1146   356   62.92494    8   12   72.29922   58.96054  18.4%  1928  800s
  1192   367   66.57657    9   11   72.29922   58.96054  18.4%  1911  805s
  1354   371   69.64558   10   10   72.29922   58.96054  18.4%  1801  811s
  1503   368     cutoff   12        72.29922   58.96054  18.4%  1737  817s
  1668   375   70.44909   10   10   72.29922   61.71028  14.6%  1681  822s
  1817   386   63.38395    9   11   72.29922   61.72325  14.6%  1646  827s
  1989   346   68.57529   11    9   72.29922   61.72325  14.6%  1596  833s
  2172   345     cutoff   13        72.29922   61.72325  14.6%  1547  837s
  2362   343   68.34111   11    9   72.29922   61.72325  14.6%  1504  842s
  2588   328   70.92993   14    6   72.29922   63.46943  12.2%  1445  849s
  2835   292   65.35724   10   10   72.29922   63.61442  12.0%  1394  854s
  3095   266   66.82368   12    8   72.29922   63.61442  12.0%  1344 1084s
  3327   230   71.81520   15    5   72.29922   65.36652  9.59%  1306 1091s
  3631   158   68.60832   12    8   72.29922   65.36652  9.59%  1260 1096s
  3944    46     cutoff   16        72.29922   65.72861  9.09%  1220 1101s
  4198    22   68.66991   12    8   72.29922   67.57970  6.53%  1183 1241s
  4270     0   70.31980   13    7   72.29922   70.31896  2.74%  1175 1245s

Cutting planes:
  Implied bound: 516
  MIR: 1559
  Relax-and-lift: 242

Explored 4315 nodes (5067625 simplex iterations) in 1245.65 seconds (2501.51 work units)
Thread count was 36 (of 36 available processors)

Solution count 6: 72.2992 72.5904 86.7779 ... 103.162

Optimal solution found (tolerance 1.00e-02)
Best objective 7.229922126428e+01, best bound 7.229922126428e+01, gap 0.0000%

Gurobi 9.5.0 (linux64) logging started Fri Dec  8 21:37:19 2023

Set parameter LogFile to value "/lustre1/scratch/348/vsc34888/JointResearch/05.Models/06.Benchmarking/E.Representative_days_based_on_Line_Benefits_OptModel/RTS24_mod1_ByStages_nc400/openStarNet_RTS24_mod1_ByStages_nc400.log"
Set parameter Method to value 2
Set parameter MIPFocus to value 1
Set parameter Presolve to value 2
Set parameter RINS to value 100
Set parameter MIPGap to value 0.01
Set parameter Threads to value 36
Set parameter TimeLimit to value 259200
Set parameter IterationLimit to value 760000000
No parameters matching 'relax_integrality' found
Gurobi Optimizer version 9.5.0 build v9.5.0rc5 (linux64)
Thread count: 36 physical cores, 36 logical processors, using up to 36 threads
Optimize a model with 142358 rows, 96101 columns and 354509 nonzeros
Model fingerprint: 0x1f651d07
Coefficient statistics:
  Matrix range     [1e-03, 6e+02]
  Objective range  [1e+00, 1e+00]
  Bounds range     [5e-05, 3e+00]
  RHS range        [5e-05, 3e+01]
Presolve removed 119042 rows and 54041 columns
Presolve time: 0.17s
Presolved: 23316 rows, 42487 columns, 100431 nonzeros

Ordering time: 0.00s

Barrier statistics:
 AA' NZ     : 5.225e+04
 Factor NZ  : 1.972e+05 (roughly 20 MB of memory)
 Factor Ops : 2.529e+06 (less than 1 second per iteration)
 Threads    : 36

                  Objective                Residual
Iter       Primal          Dual         Primal    Dual     Compl     Time
   0   4.33788649e+06 -8.05782604e+07  5.49e+01 8.43e+01  2.27e+04     0s
   1   3.09785906e+05 -6.42846447e+07  3.38e+00 1.92e-12  2.11e+03     0s
   2   5.47124421e+04 -1.68392291e+07  4.43e-01 2.37e-12  3.35e+02     0s
   3   2.87535764e+04 -2.83428514e+06  7.03e-02 1.49e-12  4.65e+01     0s
   4   2.04713631e+04 -7.11950437e+05  1.02e-02 1.02e-12  1.06e+01     0s
   5   1.39555435e+04 -2.34589378e+05  9.77e-04 7.66e-13  3.49e+00     0s
   6   6.59485068e+03 -6.58222779e+04  7.10e-05 9.69e-13  1.01e+00     0s
   7   2.60826022e+03 -1.57690659e+04  1.54e-05 2.30e-13  2.57e-01     0s
   8   9.64402485e+02 -3.64213665e+03  3.21e-06 2.27e-13  6.44e-02     0s
   9   3.84157196e+02 -1.22508704e+03  4.84e-07 4.55e-13  2.25e-02     0s
  10   2.67084555e+02 -4.90734306e+02  2.38e-07 2.27e-13  1.06e-02     0s
  11   1.63947080e+02 -2.10836582e+02  7.95e-08 2.27e-13  5.24e-03     0s
  12   1.05583350e+02 -8.29519251e+00  2.09e-08 2.27e-13  1.59e-03     0s
  13   8.18334228e+01  4.07686049e+01  4.54e-09 4.55e-13  5.74e-04     0s
  14   7.67119322e+01  5.92716632e+01  1.94e-09 2.27e-13  2.44e-04     0s
  15   7.40720319e+01  6.77662597e+01  7.19e-10 2.27e-13  8.81e-05     0s
  16   7.30324118e+01  7.05826211e+01  2.82e-10 2.27e-13  3.42e-05     0s
  17   7.25935853e+01  7.16182102e+01  1.06e-10 1.14e-13  1.36e-05     0s
  18   7.23588169e+01  7.20878367e+01  5.19e-11 1.14e-13  3.79e-06     0s
  19   7.23248149e+01  7.22452303e+01  7.65e-10 2.27e-13  1.11e-06     0s
  20   7.23022524e+01  7.22963678e+01  2.02e-10 2.27e-13  8.22e-08     0s
  21   7.22999156e+01  7.22987721e+01  2.67e-09 4.55e-13  1.60e-08     0s
  22   7.22992328e+01  7.22991814e+01  7.21e-09 2.27e-13  7.18e-10     0s
  23   7.22992214e+01  7.22992211e+01  1.05e-08 2.27e-13  3.55e-12     0s
  24   7.22992213e+01  7.22992213e+01  9.09e-12 2.27e-13  3.55e-15     1s

Barrier solved model in 24 iterations and 0.50 seconds (0.46 work units)
Optimal objective 7.22992213e+01

Crossover log...

    5113 DPushes remaining with DInf 0.0000000e+00                 1s
       0 DPushes remaining with DInf 0.0000000e+00                 1s

    1145 PPushes remaining with PInf 0.0000000e+00                 1s
       0 PPushes remaining with PInf 0.0000000e+00                 1s

  Push phase complete: Pinf 0.0000000e+00, Dinf 1.4330629e-13      1s

Iteration    Objective       Primal Inf.    Dual Inf.      Time
    1213    7.2299221e+01   0.000000e+00   0.000000e+00      1s

Use crossover to convert LP symmetric solution to basic solution...
Crossover log...

       0 DPushes remaining with DInf 0.0000000e+00                 1s

     876 PPushes remaining with PInf 0.0000000e+00                 1s
       0 PPushes remaining with PInf 0.0000000e+00                 1s

  Push phase complete: Pinf 0.0000000e+00, Dinf 1.2000761e-13      1s

Iteration    Objective       Primal Inf.    Dual Inf.      Time
    2145    7.2299221e+01   0.000000e+00   0.000000e+00      1s

Solved in 2145 iterations and 0.74 seconds (0.62 work units)
Optimal objective  7.229922126e+01
